M+/Instances/S1-10-M+/S1-10-10-1-l-M+.txt
     100      10    0.10
       1       3       3       2       3       3       1       1       3       1      14      14       3       9       2      10      12      16      10      13       4
       3       1       3       3       3       1       3       3       1       2       0       6       5       8      10       5      12      16      16       8       5
       2       3       1       2       3       3       1       2       1       3      13       5      10      16       2       7      13      16      15      16       5
       1       1       3       2       2       1       3       2       1       3       6       7       6      14      10       6       9       9       3      12       6
       2       2       2       1       3       2       1       1       3       2      13       3       8      11       6       0      14      15       1      11       4
       2       2       3       1       1       2       3       2       2       3       7       0      12      10      11      15      15       7       0       5       6
       2       2       2       2       3       3       2       2       1       2       2       0       7      16      16       5       5      11      14       8       6
       2       1       2       1       1       1       1       3       1       3       0      10      16      15       9       5      12       7      13      13       7
       2       2       3       2       2       1       1       3       3       3      11      13       4      13       9       5       4      13      10       0       7
       1       3       2       2       1       1       2       3       2       3       9      10       4      10       5       6      10       6       9       2       5
       3       2       3       2       3       1       3       3       3       2      12      10       6       5      12      12       0      13      13       5       7
       1       1       1       2       2       2       2       2       1       2      13      16      15       6      16       0       5       6       1      10       4
       1       2       2       1       1       2       2       2       2       2      10       7       8       7       3      16       6      15       9      15       6
       3       2       1       3       1       1       1       3       2       3      15       5       1      12       5      15      16      16       5       6       6
       3       2       2       1       1       2       1       3       1       2       3       3      16      13       8      15      11      11      11       9       6
       2       3       3       3       1       1       2       3       2       1      11       0      12      16       5       1       3       2       4      11       6
       1       1       1       2       2       2       1       2       2       2       6       0       2       7       5       9       8       7      13       5       7
       2       2       1       2       2       3       2       3       2       2       9       0      10       0       7       6       7      13       0       4       6
       1       2       3       3       1       3       3       1       3       2      12      12      15       9      14      13       6       9      10       6       7
       3       1       2       2       3       1       1       1       1       2       3      10       4       5       6       4      11      15       6      15       6
       2       1       2       1       3       3       1       1       2       2      11       7      13       6      13      15      13       5       6      10       4
       2       2       3       2       2       3       1       2       1       1       3      11       0      10      10      12       1       9       6       5       5
       1       1       1       1       2       3       2       2       3       2       0      15      14      15       1       7       3      10      12       0       5
       2       1       2       3       2       1       3       2       2       1       0      10      13       5       1       1      16       1       7       4       4
       3       1       3       3       1       2       2       2       3       1      14       7       3       0       0       0       8       3       4      10       6
       1       1       2       3       1       2       1       2       1       3       9      10       3      14      15       2       6      14       1      16       7
       1       3       1       2       2       2       3       3       1       2      13       6      14      14       4       6       9      16      12       5       6
       3       3       3       2       3       1       2       3       2       3       6      14      15      10      12      15       9       4      13      14       4
       3       1       1       2       3       1       1       2       2       1      13       4       8       4      12       8       4       2      11       2       7
       2       2       1       2       1       3       3       1       2       3       9       0      16       9       5       5       7       9      10      12       5
       1       2       2       1       2       1       3       2       3       2      11      10       5       8       9      16      12       5       5       5       4
       1       3       2       2       2       2       3       1       1       1       7      12       9       4       7       6       2       8       0       0       7
       2       1       1       2       1       3       3       3       3       2      13       9       3      15       2       0      11       8      12       2       4
       2       1       3       3       1       2       1       1       1       1      12       1       6       2       3      12      15       3       8      13       5
       1       3       1       2       1       2       2       2       3       2       2      13       1       3      10      14       4       9      13      16       7
       2       1       2       2       3       3       3       3       1       2      13       7      15      15       1       5       5       1      11      16       6
       3       2       3       1       3       1       2       3       2       3      14       7      13       2       5      14       3      13      15       4       6
       3       1       2       1       3       1       1       2       1       1      16       1       8       2      11       2      15       6       3       2       5
       1       2       3       1       1       3       1       2       3       1      10       8       4       0       7       5       1       4       2      11       4
       1       2       2       1       3       1       3       2       3       1       4      14      13       9      11       3       8      13       4       8       4
       2       2       3       3       1       2       2       1       3       3       4       4       4      12       5      11       2       4       4      13       7
       3       3       1       3       1       2       3       3       3       3       4       8       7       9       0      12       7      11       5      11       5
       1       2       3       1       3       3       1       2       1       2      12       8      16       9      15      15       6       8       1      12       5
       1       2       3       1       1       3       2       2       1       3      13       2       6       7       2      11      12       1       4       3       5
       3       3       3       2       3       2       2       3       1       3      13      16      13       0      16      15       1      11       7      10       4
       3       1       3       1       1       3       1       2       2       1       8       4      10      14      15      11      11       1      15      14       5
       2       1       1       1       1       1       3       1       3       3       9       2       8       5      10      13       4       1       5       1       7
       3       3       3       1       2       3       3       1       1       2       1       4       9       9      12       3       4       0       7       2       4
       3       1       1       3       2       3       2       2       3       3      11      12       9       6      12       3       4      14       7       9       5
       1       2       1       2       3       3       2       2       2       2      11       3       9      11      14       0       7       2       3       7       4
       3       3       3       3       1       3       3       1       3       1       7      16       2      10      15      16      13       8      15      15       5
       1       1       1       2       1       3       3       1       2       3      11       4      16       1       9      15       6       7      11       3       5
       1       2       1       1       3       1       3       2       3       2       0       7      14       5       0      16      10      11      13       5       7
       2       1       1       2       2       1       2       3       2       3       9       5      12       7      13       7      12       9       4       2       6
       3       1       3       3       3       1       3       3       1       3      12      10       1       5       1       7      11       6      13      12       6
       3       1       2       2       1       2       3       2       2       2       1      11      12       2       5      15      14      11      12       7       5
       3       1       2       1       2       1       2       1       1       2      11       9       2       9       2       7       3       7      16       9       5
       1       2       1       2       2       1       3       1       1       2       7       1      10       5      11       8       2       3       4       8       6
       3       3       1       3       1       3       3       2       3       1       2       4      10       9       9       3       5       1      12      10       6
       2       3       2       2       1       3       1       1       2       2      11       8       6       2       0       4      13       5       9       5       6
       1       3       3       2       3       3       3       2       2       2       8      10      13      11       8       9       0       1       7       6       6
       1       3       1       3       3       2       3       3       3       2       5      10       5       6      12       5      16      16      15       7       4
       2       3       1       3       1       1       1       1       3       1       4       0       1      12       2       4      11      12      16       8       4
       2       1       3       1       2       2       2       3       3       1       6       7       6       5       9       3      14      11      13       7       6
       3       1       2       1       3       1       3       2       1       1       4      12       3      13       7       2       5      11      15      13       6
       3       1       1       1       1       3       3       2       3       2       6       5      13       8       9      15       3       9      16      10       7
       3       3       1       3       1       3       1       1       1       1       6      16       9      15       4      13       0       3       9      12       7
       1       3       2       2       1       2       2       2       2       2       3       6      15       5       1       3       3       5      13      14       6
       1       1       2       2       2       3       2       1       3       2      12       4      13      11      12      10       5       1       3      16       4
       2       2       1       1       2       1       1       1       1       3      16       9      12       6      16       1      10       2       5       3       6
       2       2       2       3       1       2       3       1       3       1      14       4      15       7      10      11      10       6       2       7       6
       3       2       1       2       3       1       3       3       2       1      13       3      13      14       7      15       4      10      16      12       6
       1       2       2       2       2       1       2       1       2       2      15       3      15      10       4      13      14       9      16       7       6
       3       3       3       1       1       1       1       3       1       1       2      12       4       5       0       8      14      10      16       1       4
       3       3       1       2       1       2       2       3       1       2       9      13       1       3      14       6      10       3      11       7       4
       3       1       2       3       2       1       2       1       2       3       0       9       5       1       4      11       2       1      15      14       4
       3       2       3       3       2       1       1       2       2       2       3       1       2       6       3       7       9      11      12      15       6
       2       1       2       2       2       3       2       1       2       1       6      15       8      16       6       7      10       6      14      11       6
       1       3       3       1       2       3       3       3       2       3      15      14      12       3      15      10       8      11      15       9       5
       2       2       2       2       3       3       2       1       2       3       3       8       8       9      10      11       1      13       0      14       6
       1       3       2       3       1       3       2       2       1       1       4      15       4       5       0       1      16       7      12       8       5
       3       3       3       3       3       3       3       1       2       1      15      11      14       0      15       0       5       3      13      12       4
       1       1       3       2       2       2       3       1       3       1      10      12       4      12       7       2       0       6      13       6       6
       2       2       1       3       1       1       1       2       3       2      12       7       5       8       1      13      13       9       0       5       5
       1       3       3       2       2       2       1       3       2       1       7      10       1      10       7       7      14       3       3       0       5
       1       3       3       3       1       3       3       3       1       2       0       8       2       6      13       4       6       9      13      15       6
       3       1       3       3       1       2       3       2       3       3      10       9       4       0      10       1      10      10      11       3       7
       3       3       2       2       2       2       2       1       1       3       2      14      13       5       6       7       5       6       0      14       7
       3       1       2       1       3       3       1       1       1       3       1       7      14       9      11       7       0       1       1      10       4
       1       1       2       3       3       2       3       2       2       1      13       8      13      13       3       0      15      15      10       6       4
       1       3       1       1       3       2       2       3       1       2      15       5      13       7       1       2       8       8      10       9       6
       3       2       3       2       3       2       1       2       2       3      10      12      12       4      13       9      13      10       3       4       6
       1       1       2       1       2       2       2       2       2       3       6       5       0       6      16      15      14       3       8       7       6
       2       1       3       1       2       1       1       1       2       3       2       8      16      11       1       8      14      12       8       9       4
       1       2       1       1       3       2       2       3       1       1      15       0      15       8       8       7      14       2      11      14       6
       2       3       2       2       2       3       2       1       3       3      14       6       7      15       7      12      13       5       0       6       5
       1       3       3       3       3       3       2       1       3       3       2       7       9       1      12      12       5       6       7       5       6
       2       2       2       1       1       2       2       3       2       2       7      10       9      11       7       2      15      16       8       0       4
       2       1       1       1       3       1       2       3       2       3      16      15      16      10      12       5       9      14       1       0       6
       1       1       3       3       3       3       2       3       3       2      14      10       2       6      15      15      14      11       2       5       7
      75      85      72      59      60      91      61      99      64      75
     147     163     147     115     117     184     125     197     205     153
     239     418     372     262     174     250     254     513     527     399